CPXPARAM_Read_DataCheck                          1
Found incumbent of value 0.000000 after 0.00 sec. (0.08 ticks)
Tried aggregator 1 time.
MIP Presolve modified 1 coefficients.
Reduced MIP has 249 rows, 3015 columns, and 15051 nonzeros.
Reduced MIP has 3015 binaries, 0 generals, 0 SOSs, and 0 indicators.
Presolve time = 0.00 sec. (5.65 ticks)
Tried aggregator 1 time.
Reduced MIP has 249 rows, 3015 columns, and 15051 nonzeros.
Reduced MIP has 3015 binaries, 0 generals, 0 SOSs, and 0 indicators.
Presolve time = 0.02 sec. (6.73 ticks)
Probing time = 0.02 sec. (3.46 ticks)
Clique table members: 10162.
MIP emphasis: balance optimality and feasibility.
MIP search method: dynamic search.
Parallel mode: deterministic, using up to 4 threads.
Root relaxation solution time = 0.02 sec. (14.68 ticks)

        Nodes                                         Cuts/
   Node  Left     Objective  IInf  Best Integer    Best Bound    ItCnt     Gap

*     0+    0                            0.0000    18877.0000              --- 
*     0+    0                         2848.0000    18877.0000           562.82%
      0     0     4878.0383    17     2848.0000     4878.0383      485   71.28%
      0     0     4185.7087   109     2848.0000     Cuts: 162      959   46.97%
*     0+    0                         3497.0000     4185.7087            19.69%
      0     0     3936.2379   178     3497.0000     Cuts: 162     1474   12.56%
      0     0     3817.8754   387     3497.0000     Cuts: 162     2072    9.18%
*     0+    0                         3498.0000     3817.8754             9.14%
*     0+    0                         3536.0000     3817.8754             7.97%
      0     0     3771.8495   489     3536.0000     Cuts: 162     2531    6.67%
*     0+    0                         3548.0000     3771.8495             6.31%
      0     0     3704.8757   556     3548.0000     Cuts: 162     3002    4.42%
      0     0     3673.1897   637     3548.0000     Cuts: 162     3397    3.53%
      0     0     3650.0182   640     3548.0000     Cuts: 162     3732    2.88%
      0     0     3636.7567   706     3548.0000     Cuts: 162     3948    2.50%
*     0+    0                         3558.0000     3636.7567             2.21%
      0     0     3623.1004   696     3558.0000     Cuts: 162     4242    1.83%
*     0+    0                         3562.0000     3623.1004             1.72%
      0     0     3617.7344   711     3562.0000     Cuts: 162     4446    1.56%
      0     0     3615.9400   765     3562.0000     Cuts: 101     4528    1.51%
      0     0     3613.7110   774     3562.0000     Cuts: 126     4637    1.45%
      0     0     3607.5196   702     3562.0000      Cuts: 83     4787    1.28%
*     0+    0                         3563.0000     3607.5196             1.25%
      0     0     3605.8969   663     3563.0000     Cuts: 119     4872    1.20%
      0     0     3604.8840   739     3563.0000      Cuts: 25     4940    1.18%
      0     0     3603.5910   777     3563.0000      Cuts: 52     5014    1.14%
      0     0     3597.2810   731     3563.0000      Cuts: 77     5190    0.96%
      0     0     3595.7901   712     3563.0000     Cuts: 121     5274    0.92%
      0     0     3595.5410   752     3563.0000      Cuts: 48     5316    0.91%
      0     0     3595.1440   693     3563.0000      Cuts: 26     5376    0.90%
      0     0     3593.8316   704     3563.0000      Cuts: 31     5485    0.87%
      0     0     3593.2145   657     3563.0000      Cuts: 82     5531    0.85%
      0     0     3590.8113   697     3563.0000      Cuts: 72     5611    0.78%
      0     0     3590.2075   686     3563.0000      Cuts: 61     5671    0.76%
      0     2     3590.2075   686     3563.0000     3590.2075     5671    0.76%
Elapsed time = 5.83 sec. (2675.44 ticks, tree = 0.01 MB, solutions = 9)
     35     8     3572.5709   388     3563.0000     3585.8342     7876    0.64%
*    75    14      integral     0     3567.0000     3585.8342     8611    0.53%
*   342    69      integral     0     3568.0000     3569.1667    10633    0.03%
*   400+  122                         3568.0000     3569.1481             0.03%

Clique cuts applied:  429
Cover cuts applied:  76
Implied bound cuts applied:  92
Flow cuts applied:  22
Mixed integer rounding cuts applied:  81
Zero-half cuts applied:  44

Root node processing (before b&c):
  Real time             =    5.78 sec. (2644.13 ticks)
Parallel b&c, 4 threads:
  Real time             =    0.91 sec. (597.46 ticks)
  Sync time (average)   =    0.16 sec.
  Wait time (average)   =    0.00 sec.
                          ------------
Total (root+branch&cut) =    6.69 sec. (3241.59 ticks)
